
  22   10
  10   10   10   10   10   10   10   10   10   10

   0   0   0   0   0   0   0   0   0   0   0   5 2 6 7 11 21 
   4   0   0  10   0   0   0   0   0   0   0   3 12 10 3 
   7   0   0   0   0   0   0  10   0   0   0   2 17 4 
   4   0   0   0   0  10   0   0   0   0   0   1 5 
   7   0   0   0   0   0   0   0  10   0   0   2 14 8 
   2   0   0   0   0   0   0   0   0   0  10   2 20 10 
   6   0   0   0   0   0   0   0   0   0  10   2 17 13 
   4   0   0   0   0   0   0   0  10   0   0   1 9 
  10  10   0   0   0   0   0   0   0   0   0   2 19 13 
   6   0   0   0   0   0   0  10   0   0   0   2 19 13 
   9   0   0   0   0   0   0   0   0  10   0   2 19 13 
   8   0   0   0   0   0   0  10   0   0   0   1 13 
   6   0   0   0   0   0   0   0   0  10   0   1 15 
   1  10   0   0   0   0   0   0   0   0   0   2 20 19 
   3   0   0   0   0   0   0   0  10   0   0   1 16 
   2   0   0   0   0   0   0   0  10   0   0   1 18 
   5   0   0   0   0  10   0   0   0   0   0   1 19 
   4   0  10   0   0   0   0   0   0   0   0   1 22
  10   0  10   0   0   0   0   0   0   0   0   1 22
   4   0   0   0   0  10   0   0   0   0   0   1 22
   9   0   0   0   0   0   0   0  10   0   0   1 22
   0   0   0   0   0   0   0   0   0   0   0   0 
